\ This file was automatically generated by Zimpl
\ set V := {read "nodes.txt" as "<1s>" comment "#"};
\ set V_st := {"s", "t"};
\ set V_inner := V without V_st;
\ set E := {read "edges.txt" as "<1s, 2s>" comment "#"};
\ param InE_0[E] := read "edges.txt" as "<1s, 2s> 4n" comment "#";
\ param InE_star[E] := read "edges.txt" as "<1s, 2s> 5n" comment "#";
\ set E_0 := {<v,w> in E with InE_0[v,w] == 1};
\ set E_star := {<v,w> in E with InE_star[v,w] == 1};
\ param u[E] := read "edges.txt" as "<1s, 2s> 3n" comment "#";
\ param u_0 := read "other.txt" as "1n" use 1 comment "#";
\ param B := read "other.txt" as "1n" skip 1 comment "#";
\ defset din(v) := {<i,v> in E};
\ defset dout(v) := {<v,i> in E};
\ var l[V] real >= 0 <= B;
\ var x[E] real >= 0;
\ var z[E_0 without E_star] binary;
\ maximize labels: sum <v> in V: l[v];
\ subto restrictedFlow: forall <v,w> in (E without E_0) do x[v,w] == 0;
\ subto conservation_v: forall <v> in V_inner do                          sum <i,v> in din(v): x[i,v] - sum <v,i> in dout(v): x
\ [v,i] == 0;
\ subto conservation_s: sum <i,s> in din('s'): x[i,s] - sum <s,i> in dout('s'): x[s,i] == -1 * u_0;
\ subto conservation_t: sum <i,t> in din('t'): x[i,t] - sum <t,i> in dout('t'): x[t,i] == u_0;
\ subto noFlowNoResetting: forall <v,w> in E without (E_0 union E_star) do                          l[w] <= l[v];
\ subto noFlowButResetting: forall <v,w> in E_star without E_0 do                          l[w] <= 0;
\ subto lInit: l['s'] == 1;
\ subto FlowButResetting: forall <v,w> in E_0 inter E_star do                          u[v,w] * l[w] - x[v,w] == 0;
\ subto FlowNoResetting: forall <v,w> in E_0 without E_star do                          l[w] >= l[v] and                       
\    u[v,w]*l[w] >= x[v,w] and                          l[w] <= l[v] + (1-z[v,w])*2*B and                          u[v,w]*l[w] 
\ <= x[v,w] + z[v,w]*2*B*u[v,w];
\Problem name: zimplTemplateV2_1_BIGM.zpl
Maximize
 labels:  + l$s + l$t + l$0 + l$1
Subject to
 conservation_v_1:
  - x$0$t - x$0$1 + x$s$0 = 0
 conservation_v_2:
  - x$1$t + x$0$1 = 0
 conservation_s_1:
  - x$s$0 = -10
 conservation_t_1:
  + x$1$t + x$0$t = 10
 lInit_1:
  + l$s = 1
 FlowButResetti@5:
  - x$0$1 +2 l$1 = 0
 FlowNoResettin@6:
  - l$s + l$0 >= 0
 FlowNoResettin@7:
  - x$s$0 +5 l$0 >= 0
 FlowNoResettin@8:
  +10 z$s$0 - l$s + l$0 <= 10
 FlowNoResettin@9:
  -50 z$s$0 - x$s$0 +5 l$0 <= 0
 FlowNoResettin@a:
  - l$0 + l$t >= 0
 FlowNoResettin@b:
  - x$0$t +7 l$t >= 0
 FlowNoResettin@c:
  +10 z$0$t - l$0 + l$t <= 10
 FlowNoResettin@d:
  -70 z$0$t - x$0$t +7 l$t <= 0
 FlowNoResettin@e:
  - l$1 + l$t >= 0
 FlowNoResettin@f:
  - x$1$t +5 l$t >= 0
 FlowNoResetti@10:
  +10 z$1$t - l$1 + l$t <= 10
 FlowNoResetti@11:
  -50 z$1$t - x$1$t +5 l$t <= 0
Bounds
 0 <= l$s <= 5
 0 <= l$t <= 5
 0 <= l$0 <= 5
 0 <= l$1 <= 5
 0 <= x$s$0 <= +inf
 0 <= x$0$1 <= +inf
 0 <= x$0$t <= +inf
 0 <= x$1$t <= +inf
 0 <= z$s$0 <= 1
 0 <= z$0$t <= 1
 0 <= z$1$t <= 1
General
 z$s$0
 z$0$t
 z$1$t
End
